Sun 20 May 09:19:17 CEST 2018
CPXPARAM_TimeLimit                               45
CPXPARAM_Threads                                 4
CPXPARAM_MIP_Strategy_CallbackReducedLP          0
Tried aggregator 4 times.
MIP Presolve eliminated 3824 rows and 3888 columns.
MIP Presolve modified 9955 coefficients.
Aggregator did 18916 substitutions.
Reduced MIP has 25598 rows, 18184 columns, and 55861 nonzeros.
Reduced MIP has 16697 binaries, 11 generals, 0 SOSs, and 2176 indicators.
Presolve time = 0.35 sec. (919.37 ticks)
Probing time = 0.44 sec. (145.92 ticks)
Tried aggregator 3 times.
Aggregator did 11934 substitutions.
Reduced MIP has 13664 rows, 6250 columns, and 31993 nonzeros.
Reduced MIP has 4763 binaries, 1487 generals, 0 SOSs, and 2176 indicators.
Presolve time = 0.07 sec. (70.30 ticks)
Probing time = 0.12 sec. (70.14 ticks)
Tried aggregator 1 time.
Reduced MIP has 13664 rows, 6250 columns, and 31993 nonzeros.
Reduced MIP has 4763 binaries, 1487 generals, 0 SOSs, and 2176 indicators.
Presolve time = 0.03 sec. (28.13 ticks)
Probing time = 0.01 sec. (6.67 ticks)
Clique table members: 225745.
MIP emphasis: balance optimality and feasibility.
MIP search method: dynamic search.
Parallel mode: deterministic, using up to 4 threads.
Root relaxation solution time = 0.11 sec. (110.51 ticks)

        Nodes                                         Cuts/
   Node  Left     Objective  IInf  Best Integer    Best Bound    ItCnt     Gap

      0     0        0.0000  3251                      0.0000      844         
*     0+    0                           25.0000        0.0000           100.00%
*     0+    0                           24.0000        0.0000           100.00%
      0     2        0.0000   618       24.0000        0.0000      844  100.00%
Elapsed time = 21.10 sec. (10473.24 ticks, tree = 0.01 MB, solutions = 2)
      4     6        0.0000  1070       24.0000        0.0000     2014  100.00%
     27    29        0.0000   538       24.0000        0.0000     2422  100.00%
*    28+    2                           16.0000        0.0000           100.00%
     80    61        0.0000   299       16.0000        0.0000     5355  100.00%
*    95+    3                           13.0000        0.0000           100.00%
    144   144        8.0000   238       13.0000        0.0000     7582  100.00%
    210   180        0.0000   381       13.0000        0.0000     9487  100.00%
    338   270        0.0000   313       13.0000        0.0000    11225  100.00%
*   402+  300                           12.0000        0.0000           100.00%
    488   370       11.0000    28       12.0000        0.0000    13272  100.00%
*   491+  326                           11.0000        0.0000           100.00%
    575   327    infeasible             11.0000        0.0000    15810  100.00%
    623   314        2.0000   269       11.0000        0.0000    18789  100.00%
*   731   319      integral     0       10.0000        0.0000    26771  100.00%
    819   310    infeasible             10.0000        0.0000    35128  100.00%
Elapsed time = 25.68 sec. (13641.79 ticks, tree = 8.54 MB, solutions = 11)
*   965+  331                            9.0000        0.0000           100.00%
   1043   279    infeasible              9.0000        0.0000    49905  100.00%
*  1099+  287                            8.0000        0.0000           100.00%
   1198   180        0.0000   416        8.0000        0.0000    69543  100.00%
   1388    28    infeasible              8.0000        1.0000    87856   87.50%

Implied bound cuts applied:  92

Root node processing (before b&c):
  Real time             =   21.09 sec. (10471.11 ticks)
Parallel b&c, 4 threads:
  Real time             =    8.43 sec. (6142.93 ticks)
  Sync time (average)   =    1.04 sec.
  Wait time (average)   =    0.00 sec.
                          ------------
Total (root+branch&cut) =   29.52 sec. (16614.04 ticks)
   | W
 L |  0  1  2 3 4 5 6 
---------------------
 0 |  5  9  9 9 9 9 3 
 1 |  5  9  9 9 9 9 6 
 2 |  1  9  9 9 9 9 6 
 3 | 10 10 10 2 8 8 8 
 4 | 10 10 10 7 8 8 8 
 5 | 10 10 10 7 8 8 8 
 6 | 10 10 10 . 8 8 8 
 7 | 10 10 10 4 8 8 8 
 8 |  .  .  . . . . . 
 9 |  .  .  . . . . . 
10 |  .  .  . . . . . 
11 |  .  .  . . . . . 
12 |  .  .  . . . . . 
13 |  .  .  . . . . . 
14 |  .  .  . . . . . 
15 |  .  .  . . . . . 
16 |  .  .  . . . . . 
17 |  .  .  . . . . . 
18 |  .  .  . . . . . 
19 |  .  .  . . . . . 
20 |  .  .  . . . . . 
21 |  .  .  . . . . . 
22 |  .  .  . . . . . 
23 |  .  .  . . . . . 
24 |  .  .  . . . . . 

Boxes' corners:       (w,l)
    Box  1 is at 
        top left     (0,2)
        bottom right (0,2)

    Box  2 is at 
        top left     (3,3)
        bottom right (3,3)

    Box  3 is at 
        top left     (6,0)
        bottom right (6,0)

    Box  4 is at 
        top left     (3,7)
        bottom right (3,7)

    Box  5 is at 
        top left     (0,0)
        bottom right (0,1)

    Box  6 is at 
        top left     (6,1)
        bottom right (6,2)

    Box  7 is at 
        top left     (3,4)
        bottom right (3,5)

    Box  8 is at 
        top left     (4,3)
        bottom right (6,7)

    Box  9 is at 
        top left     (1,0)
        bottom right (5,2)

    Box 10 is at 
        top left     (0,3)
        bottom right (2,7)

    Roll length used: 8
In 91.85 seconds
